237408.82,19.53,21.4
241476.93,19.2,21.04
245803.61,18.87,20.67
250566.72,18.51,20.27
235906.11,19.66,21.53
235699.23,19.68,21.55
254692.38,18.21,19.94
234387.62,19.79,21.67
258861.41,17.92,19.62
236949.75,19.57,21.44
237503.8,19.53,21.39
230376.63,20.13,22.05
243103.48,19.08,20.89
247011.22,18.77,20.56
227104.57,20.42,22.37
239075.16,19.4,21.25
230304.07,20.14,22.06
242353.35,19.14,20.96
236109.59,19.64,21.51
248136.26,18.69,20.47
